SAT
99 63 32 -83 -55 -58 -9 3 68 -78 -19 56 81 -18 79 -22 -41 -5 59 -53 60 87 -67 75 35 -88 96 77 -6 -48 49 61 -100 -39 -8 -29 42 57 -93 43 2 -85 -38 -91 4 -26 40 -84 -31 -15 14 -1 89 62 -23 12 -11 17 65 52 -82 13 25 -95 24 -51 -76 -54 50 74 86 28 -10 -72 -80 -71 44 -73 45 -97 66 -27 -46 -69 90 -98 92 -94 34 30 -33 -21 20 -36 64 -37 7 70 -47 -16 0
